1583038800,997322,
1585713600,1001173,
1588305600,1005527,
1590984000,1010295,
1593576000,1014774,
1596254400,1019456,
1598932800,1024138,1
1601524800,1028911,2
1604203200,1034189,3
1606798800,1040252,4
